x,y
0, 1440
1, 1440
2, 1400
3, 1400
4, 1400
5, 1390
6, 1390
7, 1390
8, 1390
9, 1370
10, 1370
11, 1340
12, 1340
13, 1340
14, 1290
15, 1290
16, 1290
17, 1290
18, 1290
19, 1290
20, 1290
21, 1290
22, 1290
23, 1290
24, 1290
